#=======================================================
# FHI-aims file: geometry.in
# Created using the Atomic Simulation Environment (ASE)
# Tue Jan  8 03:42:44 2019
#=======================================================
lattice_vector 14.4329996108999996 0.0000000000000000 0.0000000000000000 
lattice_vector 0.0000000000000000 7.1929998397999997 0.0000000000000000 
lattice_vector 0.0000000000000000 0.0000000000000000 26.8600006104000002 
atom 0.0000000000000000 0.0000000000000000 0.7265630165113200 C
atom 0.0000000000000000 0.0000000000000000 26.1334371104086713 C
atom 7.2164998054499998 3.5964999198999998 26.1334371104086713 C
atom 7.2164998054499998 3.5964999198999998 0.7265630165113200 C
atom 0.0000000000000000 3.5964999198999998 14.1565638051913307 C
atom 0.0000000000000000 3.5964999198999998 12.7034375841486877 C
atom 7.2164998054499998 0.0000000000000000 12.7034375841486877 C
atom 7.2164998054499998 0.0000000000000000 14.1565638051913307 C
atom 13.7262158508822214 6.1651202346225782 1.4219684323145760 C
atom 0.7067839765127734 1.0278797130724191 25.4380318826254168 C
atom 6.5097160454322207 4.6243795250774209 25.4380318826254168 C
atom 7.9232835654677789 2.5686203147225783 1.4219684323145760 C
atom 7.9232835654677789 2.5686203147225783 25.4380318826254168 C
atom 6.5097160454322207 4.6243795250774209 1.4219684323145760 C
atom 0.7067839765127734 1.0278797130724191 1.4219684323145760 C
atom 13.7262158508822214 6.1651202346225782 25.4380318826254168 C
atom 13.7262158508822214 2.5686203147225783 14.8519690329745835 C
atom 0.7067839765127734 4.6243795250774209 12.0080315774254167 C
atom 6.5097160454322207 1.0278797130724191 12.0080315774254167 C
atom 7.9232835654677789 6.1651202346225782 14.8519690329745835 C
atom 7.9232835654677789 6.1651202346225782 12.0080315774254167 C
atom 6.5097160454322207 1.0278797130724191 14.8519690329745835 C
atom 0.7067839765127734 4.6243795250774209 14.8519690329745835 C
atom 13.7262158508822214 2.5686203147225783 12.0080315774254167 C
atom 13.1692461938355940 5.0868894219695608 0.7139388162244320 C
atom 1.2637534170644047 2.1061104178304388 26.1460624388155836 C
atom 5.9527463883855942 5.7026103377304382 26.1460624388155836 C
atom 8.4802532225144045 1.4903895020695614 0.7139388162244320 C
atom 8.4802532225144045 1.4903895020695614 26.1460624388155836 C
atom 5.9527463883855942 5.7026103377304382 0.7139388162244320 C
atom 1.2637534170644047 2.1061104178304388 0.7139388162244320 C
atom 13.1692461938355940 5.0868894219695608 26.1460624388155836 C
atom 13.1692461938355940 1.4903895020695614 14.1439384767844167 C
atom 1.2637534170644047 5.7026103377304382 12.7160613278155648 C
atom 5.9527463883855942 2.1061104178304388 12.7160613278155648 C
atom 8.4802532225144045 5.0868894219695608 14.1439384767844167 C
atom 8.4802532225144045 5.0868894219695608 12.7160613278155648 C
atom 5.9527463883855942 2.1061104178304388 14.1439384767844167 C
atom 1.2637534170644047 5.7026103377304382 14.1439384767844167 C
atom 13.1692461938355940 1.4903895020695614 12.7160613278155648 C
atom 12.5066271672661760 4.0043429460796611 1.3824842314172880 C
atom 1.9263724436338234 3.1886568937203386 25.4775168624627248 C
atom 5.2901273618161762 6.7851568136203380 25.4775168624627248 C
atom 9.1428722490838226 0.4078430261796614 1.3824842314172880 C
atom 9.1428722490838226 0.4078430261796614 25.4775168624627248 C
atom 5.2901273618161762 6.7851568136203380 1.3824842314172880 C
atom 1.9263724436338234 3.1886568937203386 1.3824842314172880 C
atom 12.5066271672661760 4.0043429460796611 25.4775168624627248 C
atom 12.5066271672661760 0.4078430261796614 14.8124840531372755 C
atom 1.9263724436338234 6.7851568136203380 12.0475157783227065 C
atom 5.2901273618161762 3.1886568937203386 12.0475157783227065 C
atom 9.1428722490838226 4.0043429460796611 14.8124840531372755 C
atom 9.1428722490838226 4.0043429460796611 12.0475157783227065 C
atom 5.2901273618161762 3.1886568937203386 14.8124840531372755 C
atom 1.9263724436338234 6.7851568136203380 14.8124840531372755 C
atom 12.5066271672661760 0.4078430261796614 12.0475157783227065 C
atom 11.9142968199358421 2.9987614821596229 0.6954054158032560 C
atom 2.5187027909641579 4.1942383576403763 26.1645953826167492 C
atom 4.6977970144858414 0.5977384377403766 26.1645953826167492 C
atom 9.7352025964141582 6.5952614020596227 0.6954054158032560 C
atom 9.7352025964141582 6.5952614020596227 26.1645953826167492 C
atom 4.6977970144858414 0.5977384377403766 0.6954054158032560 C
atom 2.5187027909641579 4.1942383576403763 0.6954054158032560 C
atom 11.9142968199358421 2.9987614821596229 26.1645953826167492 C
atom 11.9142968199358421 6.5952614020596227 14.1254055329832511 C
atom 2.5187027909641579 0.5977384377403766 12.7345950774167491 C
atom 4.6977970144858414 4.1942383576403763 12.7345950774167491 C
atom 9.7352025964141582 2.9987614821596229 14.1254055329832511 C
atom 9.7352025964141582 2.9987614821596229 12.7345950774167491 C
atom 4.6977970144858414 4.1942383576403763 14.1254055329832511 C
atom 2.5187027909641579 0.5977384377403766 14.1254055329832511 C
atom 11.9142968199358421 6.5952614020596227 12.7345950774167491 C
atom 13.3867518010648485 6.2399274113774981 2.8750945459172179 C
atom 1.0462481273611413 0.9530724284225012 23.9849064673827890 C
atom 6.1702515626248609 4.5495723483225010 23.9849064673827890 C
atom 8.2627476152851500 2.6434274914774987 2.8750945459172179 C
atom 8.2627476152851500 2.6434274914774987 23.9849064673827890 C
atom 6.1702515626248609 4.5495723483225010 2.8750945459172179 C
atom 1.0462481273611413 0.9530724284225012 2.8750945459172179 C
atom 13.3867518010648485 6.2399274113774981 23.9849064673827890 C
atom 13.3867518010648485 2.6434274914774987 16.3050944482172113 C
atom 1.0462481273611413 4.5495723483225010 10.5549061621827924 C
atom 6.1702515626248609 0.9530724284225012 10.5549061621827924 C
atom 8.2627476152851500 6.2399274113774981 16.3050944482172113 C
atom 8.2627476152851500 6.2399274113774981 10.5549061621827924 C
atom 6.1702515626248609 0.9530724284225012 16.3050944482172113 C
atom 1.0462481273611413 4.5495723483225010 16.3050944482172113 C
atom 13.3867518010648485 2.6434274914774987 10.5549061621827924 C
atom 13.9952467038354023 5.4379077494148023 3.8280871795542057 C
atom 0.4377528781985970 1.7550919824901994 23.0319130548057842 C
atom 6.7787468983854033 5.3515920102851968 23.0319130548057842 C
atom 7.6542527125145963 1.8414078295148029 3.8280871795542057 C
atom 7.6542527125145963 1.8414078295148029 23.0319130548057842 C
atom 6.7787468983854033 5.3515920102851968 3.8280871795542057 C
atom 0.4377528781985970 1.7550919824901994 3.8280871795542057 C
atom 13.9952467038354023 5.4379077494148023 23.0319130548057842 C
atom 13.9952467038354023 1.8414078295148029 17.2580878607942161 C
atom 0.4377528781985970 5.3515920102851968 9.6019127496057859 C
atom 6.7787468983854033 1.7550919824901994 9.6019127496057859 C
atom 7.6542527125145963 5.4379077494148023 17.2580878607942161 C
atom 7.6542527125145963 5.4379077494148023 9.6019127496057859 C
atom 6.7787468983854033 1.7550919824901994 17.2580878607942161 C
atom 0.4377528781985970 5.3515920102851968 17.2580878607942161 C
atom 13.9952467038354023 1.8414078295148029 9.6019127496057859 C
atom 13.5547512381847444 5.4271186021120945 5.1289172777158836 C
atom 0.8782479974572658 1.7658814462849002 21.7310825268840979 C
atom 6.3382518657247324 5.3623811575879055 21.7310825268840979 C
atom 8.0947481781652542 1.8306184736150997 5.1289172777158836 C
atom 8.0947481781652542 1.8306184736150997 21.7310825268840979 C
atom 6.3382518657247324 5.3623811575879055 5.1289172777158836 C
atom 0.8782479974572658 1.7658814462849002 5.1289172777158836 C
atom 13.5547512381847444 5.4271186021120945 21.7310825268840979 C
atom 13.5547512381847444 1.8306184736150997 18.5589183887159024 C
atom 0.8782479974572658 5.3623811575879055 8.3010830274841165 C
atom 6.3382518657247324 1.7658814462849002 8.3010830274841165 C
atom 8.0947481781652542 5.4271186021120945 18.5589183887159024 C
atom 8.0947481781652542 5.4271186021120945 8.3010830274841165 C
atom 6.3382518657247324 1.7658814462849002 18.5589183887159024 C
atom 0.8782479974572658 5.3623811575879055 18.5589183887159024 C
atom 13.5547512381847444 1.8306184736150997 8.3010830274841165 C
atom 12.5056163521384267 6.2212255110920207 5.5154324716195351 C
atom 1.9273828257715842 0.9717743287079788 21.3445673329804499 C
atom 5.2891169796784157 4.5682742486079793 21.3445673329804499 C
atom 9.1438830642115736 2.6247255911920209 5.5154324716195351 C
atom 9.1438830642115736 2.6247255911920209 21.3445673329804499 C
atom 5.2891169796784157 4.5682742486079793 5.5154324716195351 C
atom 1.9273828257715842 0.9717743287079788 5.5154324716195351 C
atom 12.5056163521384267 6.2212255110920207 21.3445673329804499 C
atom 12.5056163521384267 2.6247255911920209 18.9454335826195504 C
atom 1.9273828257715842 4.5682742486079793 7.9145678335804650 C
atom 5.2891169796784157 0.9717743287079788 7.9145678335804650 C
atom 9.1438830642115736 6.2212255110920207 18.9454335826195504 C
atom 9.1438830642115736 6.2212255110920207 7.9145678335804650 C
atom 5.2891169796784157 0.9717743287079788 18.9454335826195504 C
atom 1.9273828257715842 4.5682742486079793 18.9454335826195504 C
atom 12.5056163521384267 2.6247255911920209 7.9145678335804650 C
atom 11.8888946540226588 7.0196485005028206 4.5890309431268363 C
atom 2.5441047403823460 0.1733512961391800 22.2709700701731741 C
atom 4.6723948485726607 3.7698512591971785 22.2709700701731741 C
atom 9.7606047623273398 3.4231485806028208 4.5890309431268363 C
atom 9.7606047623273398 3.4231485806028208 22.2709700701731741 C
atom 4.6723948485726607 3.7698512591971785 4.5890309431268363 C
atom 2.5441047403823460 0.1733512961391800 4.5890309431268363 C
atom 11.8888946540226588 7.0196485005028206 22.2709700701731741 C
atom 11.8888946540226588 3.4231485806028208 18.0190308454268262 C
atom 2.5441047403823460 3.7698512591971785 8.8409697649731740 C
atom 4.6723948485726607 0.1733512961391800 8.8409697649731740 C
atom 9.7606047623273398 7.0196485005028206 18.0190308454268262 C
atom 9.7606047623273398 7.0196485005028206 8.8409697649731740 C
atom 4.6723948485726607 0.1733512961391800 18.0190308454268262 C
atom 2.5441047403823460 3.7698512591971785 18.0190308454268262 C
atom 11.8888946540226588 3.4231485806028208 8.8409697649731740 C
atom 12.3202970268254610 7.0304380793855188 3.2804118476881516 C
atom 2.1127025840745395 0.1625618035724798 23.5795893536318637 C
atom 5.1037972213754612 3.7590616803144807 23.5795893536318637 C
atom 9.3292023895245393 3.4339381594855189 3.2804118476881516 C
atom 9.3292023895245393 3.4339381594855189 23.5795893536318637 C
atom 5.1037972213754612 3.7590616803144807 3.2804118476881516 C
atom 2.1127025840745395 0.1625618035724798 3.2804118476881516 C
atom 12.3202970268254610 7.0304380793855188 23.5795893536318637 C
atom 12.3202970268254610 3.4339381594855189 16.7104115619681366 C
atom 2.1127025840745395 3.7590616803144807 10.1495882426318449 C
atom 5.1037972213754612 0.1625618035724798 10.1495882426318449 C
atom 9.3292023895245393 7.0304380793855188 16.7104115619681366 C
atom 9.3292023895245393 7.0304380793855188 10.1495882426318449 C
atom 5.1037972213754612 0.1625618035724798 16.7104115619681366 C
atom 2.1127025840745395 3.7590616803144807 16.7104115619681366 C
atom 12.3202970268254610 3.4339381594855189 10.1495882426318449 C
atom 12.5004211506294833 4.0208870183431973 2.3502500265499995 H
atom 1.9325786767655091 3.1721130372467976 24.5097512016300136 H
atom 5.2839213451794844 6.7686127413568027 24.5097512016300136 H
atom 9.1490782657205152 0.4243868826532023 2.3502500265499995 H
atom 9.1490782657205152 0.4243868826532023 24.5097512016300136 H
atom 5.2839213451794844 6.7686127413568027 2.3502500265499995 H
atom 1.9325786767655091 3.1721130372467976 2.3502500265499995 H
atom 12.5004211506294833 4.0208870183431973 24.5097512016300136 H
atom 12.5004211506294833 0.4243868826532023 15.7802497139699867 H
atom 1.9325786767655091 6.7686127413568027 11.0797500906299966 H
atom 5.2839213451794844 3.1721130372467976 11.0797500906299966 H
atom 9.1490782657205152 4.0208870183431973 15.7802497139699867 H
atom 9.1490782657205152 4.0208870183431973 11.0797500906299966 H
atom 5.2839213451794844 3.1721130372467976 15.7802497139699867 H
atom 1.9325786767655091 6.7686127413568027 15.7802497139699867 H
atom 12.5004211506294833 0.4243868826532023 11.0797500906299966 H
atom 11.4742349360264928 2.3017598983850007 1.1925840002417594 H
atom 2.9587648913685007 4.8912399414149981 25.6674172010782549 H
atom 4.2577351305764930 1.2947400215149987 25.6674172010782549 H
atom 10.1752644803235057 5.8982598182850010 1.1925840002417594 H
atom 10.1752644803235057 5.8982598182850010 25.6674172010782549 H
atom 4.2577351305764930 1.2947400215149987 1.1925840002417594 H
atom 2.9587648913685007 4.8912399414149981 1.1925840002417594 H
atom 11.4742349360264928 2.3017598983850007 25.6674172010782549 H
atom 11.4742349360264928 5.8982598182850010 14.6225837145217454 H
atom 2.9587648913685007 1.2947400215149987 12.2374160900782361 H
atom 4.2577351305764930 4.8912399414149981 12.2374160900782361 H
atom 10.1752644803235057 2.3017598983850007 14.6225837145217454 H
atom 10.1752644803235057 2.3017598983850007 12.2374160900782361 H
atom 4.2577351305764930 4.8912399414149981 14.6225837145217454 H
atom 2.9587648913685007 1.2947400215149987 14.6225837145217454 H
atom 11.4742349360264928 5.8982598182850010 12.2374160900782361 H
atom 0.3074228772791704 4.8624678845117995 3.5401479730107175 H
atom 14.1255764593938355 2.3305319552881998 23.3198526373892818 H
atom 7.5239229569561630 5.9270318751881996 23.3198526373892818 H
atom 6.9090770869338254 1.2659679646118001 3.5401479730107175 H
atom 6.9090770869338254 1.2659679646118001 23.3198526373892818 H
atom 7.5239229569561630 5.9270318751881996 3.5401479730107175 H
atom 14.1255764593938355 2.3305319552881998 3.5401479730107175 H
atom 0.3074228772791704 4.8624678845117995 23.3198526373892818 H
atom 0.3074228772791704 1.2659679646118001 16.9701482782107185 H
atom 14.1255764593938355 5.9270318751881996 9.8898523321892835 H
atom 7.5239229569561630 2.3305319552881998 9.8898523321892835 H
atom 6.9090770869338254 4.8624678845117995 16.9701482782107185 H
atom 6.9090770869338254 4.8624678845117995 9.8898523321892835 H
atom 7.5239229569561630 2.3305319552881998 16.9701482782107185 H
atom 14.1255764593938355 5.9270318751881996 16.9701482782107185 H
atom 0.3074228772791704 1.2659679646118001 9.8898523321892835 H
atom 14.0202161539872492 4.8840470350841967 5.8151901052915997 H
atom 0.4127837888717400 2.3089530205057982 21.0448109080084080 H
atom 6.8037159155472624 5.9054527246158024 21.0448109080084080 H
atom 7.6292832623627493 1.2875468993942016 5.8151901052915997 H
atom 7.6292832623627493 1.2875468993942016 21.0448109080084080 H
atom 6.8037159155472624 5.9054527246158024 5.8151901052915997 H
atom 0.4127837888717400 2.3089530205057982 5.8151901052915997 H
atom 14.0202161539872492 4.8840470350841967 21.0448109080084080 H
atom 14.0202161539872492 1.2875468993942016 19.2451900075915923 H
atom 0.4127837888717400 5.9054527246158024 7.6148106028084106 H
atom 6.8037159155472624 2.3089530205057982 7.6148106028084106 H
atom 7.6292832623627493 4.8840470350841967 19.2451900075915923 H
atom 7.6292832623627493 4.8840470350841967 7.6148106028084106 H
atom 6.8037159155472624 2.3089530205057982 19.2451900075915923 H
atom 0.4127837888717400 5.9054527246158024 19.2451900075915923 H
atom 14.0202161539872492 1.2875468993942016 7.6148106028084106 H
atom 12.2622767147816329 6.2363307460186022 6.4705740127453568 H
atom 2.1707231126133610 0.9566689858863998 20.3894270005546510 H
atom 5.0457769093316331 4.5531690136813969 20.3894270005546510 H
atom 9.3872227015683674 2.6398308261186023 6.4705740127453568 H
atom 9.3872227015683674 2.6398308261186023 20.3894270005546510 H
atom 5.0457769093316331 4.5531690136813969 6.4705740127453568 H
atom 2.1707231126133610 0.9566689858863998 6.4705740127453568 H
atom 12.2622767147816329 6.2363307460186022 20.3894270005546510 H
atom 12.2622767147816329 2.6398308261186023 19.9005739150453493 H
atom 2.1707231126133610 4.5531690136813969 6.9594266953546517 H
atom 5.0457769093316331 0.9566689858863998 6.9594266953546517 H
atom 9.3872227015683674 6.2363307460186022 19.9005739150453493 H
atom 9.3872227015683674 6.2363307460186022 6.9594266953546517 H
atom 5.0457769093316331 0.9566689858863998 19.9005739150453493 H
atom 2.1707231126133610 4.5531690136813969 19.9005739150453493 H
atom 12.2622767147816329 2.6398308261186023 6.9594266953546517 H
atom 11.1610384836449725 0.4315799831950001 4.8186840289257580 H
atom 3.2719609107600323 6.7614198350260004 22.0413173872742583 H
atom 3.9445386781949727 3.1649199151260001 22.0413173872742583 H
atom 10.4884609327050260 4.0280799246739996 4.8186840289257580 H
atom 10.4884609327050260 4.0280799246739996 22.0413173872742583 H
atom 3.9445386781949727 3.1649199151260001 4.8186840289257580 H
atom 3.2719609107600323 6.7614198350260004 4.8186840289257580 H
atom 11.1610384836449725 0.4315799831950001 22.0413173872742583 H
atom 11.1610384836449725 4.0280799246739996 18.2486835283257420 H
atom 3.2719609107600323 3.1649199151260001 8.6113162762742430 H
atom 3.9445386781949727 6.7614198350260004 8.6113162762742430 H
atom 10.4884609327050260 0.4315799831950001 18.2486835283257420 H
atom 10.4884609327050260 0.4315799831950001 8.6113162762742430 H
atom 3.9445386781949727 6.7614198350260004 18.2486835283257420 H
atom 3.2719609107600323 3.1649199151260001 18.2486835283257420 H
atom 11.1610384836449725 4.0280799246739996 8.6113162762742430 H
atom 11.8884619382613259 0.3956149911890000 2.5651300582932000 H
atom 2.5445378891336685 6.7973847982600013 24.2948707669868043 H
atom 4.6719621328113261 3.2008848783600010 24.2948707669868043 H
atom 9.7610374780886744 3.9921149614399982 2.5651300582932000 H
atom 9.7610374780886744 3.9921149614399982 24.2948707669868043 H
atom 4.6719621328113261 3.2008848783600010 2.5651300582932000 H
atom 2.5445378891336685 6.7973847982600013 2.5651300582932000 H
atom 11.8884619382613259 0.3956149911890000 24.2948707669868043 H
atom 11.8884619382613259 3.9921149614399982 15.9951301486131960 H
atom 2.5445378891336685 3.2008848783600010 10.8648704617868059 H
atom 4.6719621328113261 6.7973847982600013 10.8648704617868059 H
atom 9.7610374780886744 0.3956149911890000 15.9951301486131960 H
atom 9.7610374780886744 0.3956149911890000 10.8648704617868059 H
atom 4.6719621328113261 6.7973847982600013 15.9951301486131960 H
atom 2.5445378891336685 3.2008848783600010 15.9951301486131960 H
atom 11.8884619382613259 3.9921149614399982 10.8648704617868059 H
